c description: Random 3-CNF over 17 variables and 72 clauses
c generator: CNFgen (0.9.2)
c copyright: (C) 2012-2022 Massimo Lauria <massimo.lauria@uniroma1.it>
c url: https://massimolauria.net/cnfgen
c command line: cnfgen --output CNF_4.28/17_bit_72_593.cnf randkcnf 3 17 72
c
p cnf 17 72
4 5 7 0
4 8 -14 0
-3 5 -9 0
-4 -8 -11 0
15 -16 -17 0
-2 -14 16 0
8 -9 16 0
1 5 -15 0
-1 -6 -8 0
6 10 12 0
-1 -9 -12 0
-1 3 -6 0
2 9 -13 0
4 -7 16 0
-1 2 3 0
7 -11 16 0
7 -10 -13 0
-5 -8 -11 0
5 14 -15 0
3 12 14 0
-4 -8 -15 0
7 -11 -12 0
4 -5 -7 0
1 3 10 0
8 -11 -13 0
4 8 16 0
10 -13 16 0
-2 -12 15 0
-3 -4 9 0
8 12 -17 0
5 7 11 0
-7 11 -15 0
5 6 -15 0
7 -9 -14 0
-4 -5 11 0
-9 10 -14 0
6 11 13 0
-6 8 12 0
-11 14 -15 0
-3 9 16 0
12 14 -15 0
6 -12 14 0
-6 -8 16 0
3 -5 -11 0
4 -13 -14 0
2 -9 -10 0
-1 5 13 0
4 8 -12 0
-4 13 -14 0
-6 -9 -12 0
6 -7 17 0
2 6 -10 0
5 13 14 0
-5 -8 -9 0
8 -9 -13 0
7 -12 -14 0
-5 -9 14 0
-6 10 12 0
3 5 -7 0
5 -13 -17 0
1 2 -8 0
-9 -10 -17 0
3 6 -15 0
3 -4 11 0
3 10 13 0
-5 7 -11 0
-1 3 8 0
2 -3 -9 0
2 15 17 0
-1 -15 16 0
5 10 -16 0
4 9 13 0
